8 13 10 2 5 14 11 12 6 1 0 3 9 7 4
1 12 9 13 10 4 14 0 8 7 11 3 6 5 2
1 13 5 4 14 12 3 6 7 2 8 9 0 10 11
11 0 2 1 13 7 4 3 5 12 8 9 14 10 6
10 8 11 12 3 13 1 0 4 5 9 14 7 2 6
3 10 4 5 6 11 14 2 8 13 1 9 0 7 12
13 0 10 14 7 9 3 6 11 8 2 4 12 5 1
7 9 0 6 10 14 13 11 12 8 5 3 1 4 2
9 2 6 12 5 11 4 3 1 13 10 0 7 8 14
7 14 11 3 2 10 13 5 9 6 0 12 1 8 4
14 12 5 6 2 13 3 7 0 1 11 9 10 8 4
5 9 3 6 4 14 8 2 10 13 11 1 12 7 0
10 1 6 7 13 9 0 11 12 14 3 4 2 5 8
4 3 10 1 11 14 0 9 6 2 7 13 5 12 8
5 11 2 13 4 3 9 14 1 6 12 0 7 8 10